%%%%%%%%%%%%%%%%%%%%%%%%%%%%%%%%%%%%%%%%%%%%%%%%%%%%%%%%%%%%%%%%%%%%%%%%%
%FILE DATA:	Soccer Computational Problem for MiniZinc Models
%AUTHORS:	Robinson Duque, Alejandro Arbelaez, Juan Francisco Díaz
%CONTACT:  	robinson.duque@correounivalle.edu.co 
%LAST UPDATE:	May, 2018 
%ROUND ROBIN:2
%TEAMS:20
%PRESENT FIXTURE:26
%FIXTURES TO PLAY:12
%GAMES TO PLAY:120
%%%%%%%%%%%%%%%%%%%%%%%%%%%%%%%%%%%%%%%%%%%%%%%%%%%%%%%%%%%%%%%%%%%%%%%%%
%Number of teams:
n=20;

%For the purpose of our models, we offer two representations of the games to play, namely fixtures and games to play:

%Fixtures to play:
%fixtures=[|0,1,1,1,0,1,0,1,0,1,1,0,0,1,1,0,1,0,1,1
%|1,0,1,1,0,0,1,0,1,0,1,1,1,0,1,0,1,0,1,1
%|1,1,0,1,0,0,1,1,1,1,1,0,1,1,0,0,1,0,0,1
%|1,1,1,0,0,1,0,0,1,1,1,1,0,0,1,1,1,1,0,0
%|0,0,0,0,0,0,1,1,1,1,0,1,1,0,1,1,1,1,1,1
%|1,0,0,1,0,0,1,1,1,1,1,1,0,0,0,1,1,0,1,1
%|0,1,1,0,1,1,0,1,0,0,1,1,0,1,1,1,0,1,0,1
%|1,0,1,0,1,1,1,0,1,1,0,0,1,1,1,0,1,1,0,0
%|0,1,1,1,1,1,0,1,0,1,0,0,0,1,1,0,1,1,1,0
%|1,0,1,1,1,1,0,1,1,0,0,1,1,1,0,1,0,0,0,1
%|1,1,1,1,0,1,1,0,0,0,0,1,1,1,0,1,0,1,1,0
%|0,1,0,1,1,1,1,0,0,1,1,0,0,1,0,1,1,1,0,1
%|0,1,1,0,1,0,0,1,0,1,1,0,0,1,1,1,0,1,1,1
%|1,0,1,0,0,0,1,1,1,1,1,1,1,0,1,0,1,0,1,0
%|1,1,0,1,1,0,1,1,1,0,0,0,1,1,0,1,0,0,1,1
%|0,0,0,1,1,1,1,0,0,1,1,1,1,0,1,0,1,1,1,0
%|1,1,1,1,1,1,0,1,1,0,0,1,0,1,0,1,0,1,0,0
%|0,0,0,1,1,0,1,1,1,0,1,1,1,0,0,1,1,0,1,1
%|1,1,0,0,1,1,0,0,1,0,1,0,1,1,1,1,0,1,0,1
%|1,1,1,0,1,1,1,0,0,1,0,1,1,0,1,0,0,1,1,0|];

%Played Fixtures:
%PlayedFixtures=[|0,1,1,1,2,1,2,1,2,1,1,2,2,1,1,2,1,2,1,1
%|1,0,1,1,2,2,1,2,1,2,1,1,1,2,1,2,1,2,1,1
%|1,1,0,1,2,2,1,1,1,1,1,2,1,1,2,2,1,2,2,1
%|1,1,1,0,2,1,2,2,1,1,1,1,2,2,1,1,1,1,2,2
%|2,2,2,2,0,2,1,1,1,1,2,1,1,2,1,1,1,1,1,1
%|1,2,2,1,2,0,1,1,1,1,1,1,2,2,2,1,1,2,1,1
%|2,1,1,2,1,1,0,1,2,2,1,1,2,1,1,1,2,1,2,1
%|1,2,1,2,1,1,1,0,1,1,2,2,1,1,1,2,1,1,2,2
%|2,1,1,1,1,1,2,1,0,1,2,2,2,1,1,2,1,1,1,2
%|1,2,1,1,1,1,2,1,1,0,2,1,1,1,2,1,2,2,2,1
%|1,1,1,1,2,1,1,2,2,2,0,1,1,1,2,1,2,1,1,2
%|2,1,2,1,1,1,1,2,2,1,1,0,2,1,2,1,1,1,2,1
%|2,1,1,2,1,2,2,1,2,1,1,2,0,1,1,1,2,1,1,1
%|1,2,1,2,2,2,1,1,1,1,1,1,1,0,1,2,1,2,1,2
%|1,1,2,1,1,2,1,1,1,2,2,2,1,1,0,1,2,2,1,1
%|2,2,2,1,1,1,1,2,2,1,1,1,1,2,1,0,1,1,1,2
%|1,1,1,1,1,1,2,1,1,2,2,1,2,1,2,1,0,1,2,2
%|2,2,2,1,1,2,1,1,1,2,1,1,1,2,2,1,1,0,1,1
%|1,1,2,2,1,1,2,2,1,2,1,2,1,1,1,1,2,1,0,1
%|1,1,1,2,1,1,1,2,2,1,2,1,1,2,1,2,2,1,1,0|];

%Games to play:
games=[|2,1|3,1|3,2|4,1|4,2|4,3|6,1|6,4|7,2|7,3|7,5|7,6|8,1|8,3|8,5|8,6|8,7|9,2|9,3|9,4|9,5|9,6|9,8|10,1|10,3|10,4|10,5|10,6|10,8|10,9|11,1|11,2|11,3|11,4|11,6|11,7|12,2|12,4|12,5|12,6|12,7|12,10|12,11|13,2|13,3|13,5|13,8|13,10|13,11|14,1|14,3|14,7|14,8|14,9|14,10|14,11|14,12|14,13|15,1|15,2|15,4|15,5|15,7|15,8|15,9|15,13|15,14|16,4|16,5|16,6|16,7|16,10|16,11|16,12|16,13|16,15|17,1|17,2|17,3|17,4|17,5|17,6|17,8|17,9|17,12|17,14|17,16|18,4|18,5|18,7|18,8|18,9|18,11|18,12|18,13|18,16|18,17|19,1|19,2|19,5|19,6|19,9|19,11|19,13|19,14|19,15|19,16|19,18|20,1|20,2|20,3|20,5|20,6|20,7|20,10|20,12|20,13|20,15|20,18|20,19|];

%Played Games:
%PlayedGames=[|2,1|3,1|3,2|4,1|4,2|4,3|5,1|5,1|5,2|5,2|5,3|5,3|5,4|5,4|6,1|6,2|6,2|6,3|6,3|6,4|6,5|6,5|7,1|7,1|7,2|7,3|7,4|7,4|7,5|7,6|8,1|8,2|8,2|8,3|8,4|8,4|8,5|8,6|8,7|9,1|9,1|9,2|9,3|9,4|9,5|9,6|9,7|9,7|9,8|10,1|10,2|10,2|10,3|10,4|10,5|10,6|10,7|10,7|10,8|10,9|11,1|11,2|11,3|11,4|11,5|11,5|11,6|11,7|11,8|11,8|11,9|11,9|11,10|11,10|12,1|12,1|12,2|12,3|12,3|12,4|12,5|12,6|12,7|12,8|12,8|12,9|12,9|12,10|12,11|13,1|13,1|13,2|13,3|13,4|13,4|13,5|13,6|13,6|13,7|13,7|13,8|13,9|13,9|13,10|13,11|13,12|13,12|14,1|14,2|14,2|14,3|14,4|14,4|14,5|14,5|14,6|14,6|14,7|14,8|14,9|14,10|14,11|14,12|14,13|15,1|15,2|15,3|15,3|15,4|15,5|15,6|15,6|15,7|15,8|15,9|15,10|15,10|15,11|15,11|15,12|15,12|15,13|15,14|16,1|16,1|16,2|16,2|16,3|16,3|16,4|16,5|16,6|16,7|16,8|16,8|16,9|16,9|16,10|16,11|16,12|16,13|16,14|16,14|16,15|17,1|17,2|17,3|17,4|17,5|17,6|17,7|17,7|17,8|17,9|17,10|17,10|17,11|17,11|17,12|17,13|17,13|17,14|17,15|17,15|17,16|18,1|18,1|18,2|18,2|18,3|18,3|18,4|18,5|18,6|18,6|18,7|18,8|18,9|18,10|18,10|18,11|18,12|18,13|18,14|18,14|18,15|18,15|18,16|18,17|19,1|19,2|19,3|19,3|19,4|19,4|19,5|19,6|19,7|19,7|19,8|19,8|19,9|19,10|19,10|19,11|19,12|19,12|19,13|19,14|19,15|19,16|19,17|19,17|19,18|20,1|20,2|20,3|20,4|20,4|20,5|20,6|20,7|20,8|20,8|20,9|20,9|20,10|20,11|20,11|20,12|20,13|20,14|20,14|20,15|20,16|20,16|20,17|20,17|20,18|20,19|];

%Played Games - Win Results:
%% 0  1  1  0  0  0  0  1  0  1  0  0  2  0  1  0  0  2  0  0
%% 0  0  0  0  0  0  0  0  0  0  0  0  0  0  1  0  0  0  0  1
%% 0  1  0  0  0  0  0  0  0  0  0  0  0  0  0  0  0  0  0  1
%% 1  0  1  0  0  0  2  1  0  0  0  0  1  0  0  0  0  0  0  0
%% 0  0  0  0  0  0  0  0  0  0  0  0  0  0  0  0  0  0  0  0
%% 0  0  0  1  0  0  0  0  0  1  0  0  2  0  0  0  1  0  0  0
%% 0  1  1  0  0  0  0  0  0  0  0  0  0  0  0  0  0  0  0  0
%% 0  0  1  0  1  0  0  0  0  0  0  0  1  0  1  0  0  0  2  0
%% 0  1  0  0  1  0  0  0  0  0  0  0  1  0  0  0  1  0  0  0
%% 0  0  1  0  1  0  0  0  0  0  0  0  0  0  0  0  0  0  2  1
%% 1  1  1  1  0  1  0  0  2  0  0  0  0  0  0  0  0  0  0  0
%% 0  0  0  1  1  0  1  0  2  1  1  0  0  0  0  0  0  1  0  0
%% 0  0  0  0  0  0  0  0  0  0  0  0  0  0  0  0  0  0  0  1
%% 0  0  1  0  0  2  1  0  1  1  0  1  1  0  1  2  0  0  1  0
%% 0  0  0  0  0  0  0  0  0  0  0  0  0  0  0  0  0  0  0  0
%% 1  0  0  1  1  0  0  0  0  0  1  1  0  0  1  0  1  1  0  0
%% 0  0  0  0  0  0  0  0  0  0  0  0  0  0  0  0  0  0  0  0
%% 0  0  0  0  1  0  0  0  0  0  0  0  0  0  0  0  1  0  0  1
%% 0  0  0  0  1  0  0  0  0  0  0  0  0  0  0  0  0  0  0  1
%% 0  0  0  0  0  0  0  0  0  0  0  0  0  0  0  0  0  0  0  0
%Played Games - Tie Results:
%% 0  0  0  0  2  1  2  0  2  0  0  2  0  1  0  1  1  0  1  1
%% 0  0  0  1  2  2  0  2  0  2  0  1  1  2  0  2  1  2  1  0
%% 0  0  0  0  2  2  0  0  1  0  0  2  1  0  2  2  1  2  2  0
%% 0  1  0  0  2  0  0  1  1  1  0  0  1  2  1  0  1  1  2  2
%% 2  2  2  2  0  2  1  0  0  0  2  0  1  2  1  0  1  0  0  1
%% 1  2  2  0  2  0  1  1  1  0  0  1  0  0  2  1  0  2  1  1
%% 2  0  0  0  1  1  0  1  2  2  1  0  2  0  1  1  2  1  2  1
%% 0  2  0  1  0  1  1  0  1  1  2  2  0  1  0  2  1  1  0  2
%% 2  0  1  1  0  1  2  1  0  1  0  0  1  0  1  2  0  1  1  2
%% 0  2  0  1  0  0  2  1  1  0  2  0  1  0  2  1  2  2  0  0
%% 0  0  0  0  2  0  1  2  0  2  0  0  1  1  2  0  2  1  1  2
%% 2  1  2  0  0  1  0  2  0  0  0  0  2  0  2  0  1  0  2  1
%% 0  1  1  1  1  0  2  0  1  1  1  2  0  0  1  1  2  1  1  0
%% 1  2  0  2  2  0  0  1  0  0  1  0  0  0  0  0  1  2  0  2
%% 0  0  2  1  1  2  1  0  1  2  2  2  1  0  0  0  2  2  1  1
%% 1  2  2  0  0  1  1  2  2  1  0  0  1  0  0  0  0  0  1  2
%% 1  1  1  1  1  0  2  1  0  2  2  1  2  1  2  0  0  0  2  2
%% 0  2  2  1  0  2  1  1  1  2  1  0  1  2  2  0  0  0  1  0
%% 1  1  2  2  0  1  2  0  1  0  1  2  1  0  1  1  2  1  0  0
%% 1  0  0  2  1  1  1  2  2  0  2  1  0  2  1  2  2  0  0  0
%Played Games - Lose Results:
%% 0  0  0  1  0  0  0  0  0  0  1  0  0  0  0  1  0  0  0  0
%% 1  0  1  0  0  0  1  0  1  0  1  0  0  0  0  0  0  0  0  0
%% 1  0  0  1  0  0  1  1  0  1  1  0  0  1  0  0  0  0  0  0
%% 0  0  0  0  0  1  0  0  0  0  1  1  0  0  0  1  0  0  0  0
%% 0  0  0  0  0  0  0  1  1  1  0  1  0  0  0  1  0  1  1  0
%% 0  0  0  0  0  0  0  0  0  0  1  0  0  2  0  0  0  0  0  0
%% 0  0  0  2  0  0  0  0  0  0  0  1  0  1  0  0  0  0  0  0
%% 1  0  0  1  0  0  0  0  0  0  0  0  0  0  0  0  0  0  0  0
%% 0  0  0  0  0  0  0  0  0  0  2  2  0  1  0  0  0  0  0  0
%% 1  0  0  0  0  1  0  0  0  0  0  1  0  1  0  0  0  0  0  0
%% 0  0  0  0  0  0  0  0  0  0  0  1  0  0  0  1  0  0  0  0
%% 0  0  0  0  0  0  0  0  0  0  0  0  0  1  0  1  0  0  0  0
%% 2  0  0  1  0  2  0  1  1  0  0  0  0  1  0  0  0  0  0  0
%% 0  0  0  0  0  0  0  0  0  0  0  0  0  0  0  0  0  0  0  0
%% 1  1  0  0  0  0  0  1  0  0  0  0  0  1  0  1  0  0  0  0
%% 0  0  0  0  0  0  0  0  0  0  0  0  0  2  0  0  0  0  0  0
%% 0  0  0  0  0  1  0  0  1  0  0  0  0  0  0  1  0  1  0  0
%% 2  0  0  0  0  0  0  0  0  0  0  1  0  0  0  1  0  0  0  0
%% 0  0  0  0  0  0  0  2  0  2  0  0  0  1  0  0  0  0  0  0
%% 0  1  1  0  0  0  0  0  0  1  0  0  1  0  0  0  0  1  1  0

%%Initial points:
iPoints=[41, 25, 23, 34, 19, 33, 26, 36, 29, 32, 38, 40, 20, 50, 21, 40, 22, 28, 25, 20];

%%Initial positions:
%iPositions=[2, 14, 15, 7, 20, 8, 12, 6, 10, 9, 5, 4, 19, 1, 17, 3, 16, 11, 13, 18];

%%Position Constraints:
%numberPositionConstraints=1;

%%Total Fixtures:
%totalFixtures=38;

%%Fixtures to Play:
%fixturesToPlay=12;

%%Position Constraints Built With
%wantedPoints=[1, 3, 1, 0, 0, 3, 1, 3, 3, 1, 3, 1, 1, 3, 1, 3, 1, 3, 1, 1, 3, 3, 3, 0, 3, 1, 1, 0, 1, 0, 1, 1, 1, 0, 3, 1, 0, 0, 1, 1, 3, 3, 3, 1, 0, 1, 3, 1, 0, 3, 0, 3, 1, 0, 0, 1, 0, 1, 1, 3, 1, 1, 0, 0, 0, 0, 0, 3, 3, 0, 3, 3, 1, 1, 3, 1, 1, 3, 1, 3, 1, 3, 0, 0, 0, 0, 0, 3, 0, 1, 1, 3, 3, 3, 1, 0, 3, 3, 3, 3, 3, 3, 0, 0, 0, 3, 3, 1, 1, 1, 0, 0, 1, 1, 3, 3, 1, 3, 1, 1];

%POSITION CONSTRAINTS
%%[|teamID, operator, position|...]
%%operators index:
%%%1 for =  operator
%%%2 for >  operator
%%%3 for >= operator
%%%4 for <  operator
%%%5 for <= operator

positionConstraints=[|4,1,10|];

%SCORE VECTOR CONSTRAINTS
%%[|teamID, operator, wantedPoints|...]
%%operators index:
%%%1 for =  operator
%%%2 for >  operator
%%%3 for >= operator
%%%4 for <  operator
%%%5 for <= operator

%scoreVectorConstraints=[|4,1,46|];

%Instance Features:
%features=T,FP,TF,C,C/T,C/TF,FP/TF,FP/T,FP*C/T,FP*T/C,(C/T)*(FP/TF),Distance,Distance/C,Distance/T,Distance/(C*T)
%values=20,12,38,1,0.05,0.02631578947368421,0.3157894736842105,0.6,0.6,240.0,0.01578947368421053,3,3.0,0.15,0.15



gamesOfEveryTeam=[12,12,12,12,12,12,12,12,12,12,12,12,12,12,12,12,12,12,12,12];
weights=[|10,29,0,61|49,45,0,6|65,1,0,34|11,16,0,73|32,16,0,52|98,2,0,0|93,2,0,5|62,38,0,0|13,48,0,39|39,52,0,9|42,57,0,1|26,7,0,67|55,23,0,22|15,31,0,54|23,39,0,38|3,66,0,31|91,9,0,0|89,4,0,7|64,0,0,36|63,22,0,15|79,7,0,14|57,21,0,22|52,28,0,20|88,9,0,3|19,18,0,63|38,32,0,30|37,48,0,15|34,61,0,5|77,22,0,1|29,9,0,62|4,86,0,10|65,13,0,22|52,3,0,45|76,20,0,4|19,79,0,2|93,4,0,3|48,39,0,13|87,9,0,4|59,25,0,16|50,41,0,9|42,54,0,4|50,41,0,9|33,51,0,16|33,61,0,6|21,23,0,56|97,0,0,3|48,50,0,2|91,1,0,8|42,49,0,9|36,25,0,39|1,10,0,89|28,25,0,47|43,37,0,20|83,3,0,14|39,1,0,60|90,9,0,1|72,10,0,18|96,3,0,1|33,7,0,60|87,6,0,7|47,6,0,47|29,13,0,58|90,5,0,5|42,33,0,25|55,28,0,17|42,41,0,17|36,25,0,39|9,11,0,80|9,21,0,70|14,38,0,48|81,3,0,16|22,7,0,71|67,4,0,29|63,7,0,30|37,12,0,51|5,39,0,56|17,24,0,59|87,10,0,3|65,18,0,17|12,72,0,16|71,23,0,6|40,9,0,51|49,25,0,26|29,43,0,28|30,25,0,45|35,53,0,12|7,76,0,17|41,27,0,32|13,27,0,60|41,54,0,5|57,43,0,0|21,20,0,59|12,7,0,81|8,67,0,25|94,3,0,3|91,2,0,7|36,14,0,50|74,15,0,11|28,60,0,12|100,0,0,0|33,40,0,27|86,13,0,1|11,89,0,0|50,7,0,43|45,42,0,13|38,7,0,55|20,9,0,71|33,45,0,22|3,56,0,41|100,0,0,0|10,12,0,78|29,41,0,30|67,16,0,17|31,28,0,41|37,1,0,62|67,18,0,15|3,36,0,61|62,15,0,23|65,21,0,14|85,8,0,7|];